c 1 ChatClient
c 2 UI
c 3 GUI
c 4 TextualUI
c 5 History
c 6 InputHistory
c 7 ChatLogs
c 8 ServerHistory
c 9 MessageNotification
c 10 NativeNotification
c 11 HighlightedTab
c 12 UnreadMessageCounter
c 13 TextFormatting
c 14 AutoCompletion
p cnf 14 20
1 0
-2 1 0
-1 2 0
-3 2 0
-4 2 0
-2 3 4 0
-4 -3 0
-5 1 0
-6 5 0
-7 5 0
-8 5 0
-5 6 7 8 0
-9 1 0
-10 9 0
-11 9 0
-12 9 0
-9 10 11 12 0
-13 1 0
-14 1 0
-11 3 0
